21° run output:
{
    "Function": "euclidA300.tsp",
    "Problem dimension": [
        5,
        97,
        125,
        67,
        288,
        2,
        271,
        100,
        14,
        169,
        12,
        94,
        98,
        113,
        92,
        43,
        178,
        86,
        220,
        221,
        267,
        37,
        180,
        42,
        197,
        131,
        275,
        120,
        83,
        148,
        296,
        294,
        101,
        85,
        30,
        251,
        11,
        273,
        79,
        52,
        263,
        260,
        217,
        21,
        69,
        150,
        282,
        269,
        226,
        87,
        237,
        151,
        111,
        80,
        137,
        289,
        134,
        91,
        166,
        145,
        35,
        286,
        26,
        99,
        0,
        68,
        250,
        207,
        160,
        179,
        187,
        112,
        158,
        243,
        206,
        123,
        291,
        252,
        117,
        293,
        254,
        152,
        191,
        227,
        246,
        190,
        10,
        219,
        130,
        266,
        196,
        128,
        40,
        213,
        53,
        127,
        257,
        15,
        105,
        71,
        78,
        231,
        114,
        139,
        124,
        70,
        39,
        66,
        161,
        118,
        188,
        242,
        138,
        133,
        38,
        162,
        232,
        241,
        1,
        135,
        264,
        27,
        290,
        244,
        284,
        185,
        103,
        65,
        228,
        238,
        200,
        109,
        95,
        17,
        247,
        55,
        7,
        283,
        278,
        3,
        209,
        230,
        233,
        106,
        61,
        143,
        181,
        93,
        172,
        205,
        210,
        48,
        147,
        287,
        236,
        274,
        20,
        280,
        96,
        46,
        62,
        189,
        58,
        4,
        126,
        177,
        170,
        60,
        299,
        193,
        75,
        276,
        218,
        116,
        224,
        129,
        64,
        214,
        155,
        110,
        142,
        184,
        176,
        285,
        141,
        74,
        248,
        270,
        268,
        44,
        49,
        195,
        272,
        277,
        262,
        132,
        33,
        171,
        29,
        56,
        253,
        59,
        140,
        25,
        156,
        234,
        175,
        292,
        164,
        146,
        89,
        279,
        182,
        9,
        107,
        57,
        215,
        157,
        295,
        102,
        51,
        50,
        41,
        104,
        34,
        183,
        203,
        259,
        198,
        136,
        261,
        211,
        122,
        119,
        28,
        72,
        208,
        121,
        108,
        8,
        256,
        245,
        13,
        212,
        149,
        16,
        186,
        82,
        31,
        159,
        153,
        258,
        265,
        88,
        216,
        167,
        192,
        173,
        168,
        18,
        81,
        36,
        222,
        90,
        235,
        281,
        165,
        22,
        298,
        54,
        204,
        32,
        297,
        73,
        239,
        223,
        194,
        84,
        201,
        202,
        240,
        63,
        229,
        6,
        144,
        115,
        255,
        24,
        45,
        225,
        23,
        163,
        19,
        47,
        174,
        199,
        249,
        76,
        77,
        154
    ],
    "Global Optimum": 0,
    "Algorithm": "Genetic algorithm",
    "Parameters": {
        "population": 30,
        "offspring": 30,
        "mutation probability": 0.0033333333333333335,
        "crossover probability": 0.9
    },
    "Fitness": 296789,
    "Solution": [
        5,
        97,
        125,
        67,
        288,
        2,
        271,
        100,
        14,
        169,
        12,
        94,
        98,
        113,
        92,
        43,
        178,
        86,
        220,
        221,
        267,
        37,
        180,
        42,
        197,
        131,
        275,
        120,
        83,
        148,
        296,
        294,
        101,
        85,
        30,
        251,
        11,
        273,
        79,
        52,
        263,
        260,
        217,
        21,
        69,
        150,
        282,
        269,
        226,
        87,
        237,
        151,
        111,
        80,
        137,
        289,
        134,
        91,
        166,
        145,
        35,
        286,
        26,
        99,
        0,
        68,
        250,
        207,
        160,
        179,
        187,
        112,
        158,
        243,
        206,
        123,
        291,
        252,
        117,
        293,
        254,
        152,
        191,
        227,
        246,
        190,
        10,
        219,
        130,
        266,
        196,
        128,
        40,
        213,
        53,
        127,
        257,
        15,
        105,
        71,
        78,
        231,
        114,
        139,
        124,
        70,
        39,
        66,
        161,
        118,
        188,
        242,
        138,
        133,
        38,
        162,
        232,
        241,
        1,
        135,
        264,
        27,
        290,
        244,
        284,
        185,
        103,
        65,
        228,
        238,
        200,
        109,
        95,
        17,
        247,
        55,
        7,
        283,
        278,
        3,
        209,
        230,
        233,
        106,
        61,
        143,
        181,
        93,
        172,
        205,
        210,
        48,
        147,
        287,
        236,
        274,
        20,
        280,
        96,
        46,
        62,
        189,
        58,
        4,
        126,
        177,
        170,
        60,
        299,
        193,
        75,
        276,
        218,
        116,
        224,
        129,
        64,
        214,
        155,
        110,
        142,
        184,
        176,
        285,
        141,
        74,
        248,
        270,
        268,
        44,
        49,
        195,
        272,
        277,
        262,
        132,
        33,
        171,
        29,
        56,
        253,
        59,
        140,
        25,
        156,
        234,
        175,
        292,
        164,
        146,
        89,
        279,
        182,
        9,
        107,
        57,
        215,
        157,
        295,
        102,
        51,
        50,
        41,
        104,
        34,
        183,
        203,
        259,
        198,
        136,
        261,
        211,
        122,
        119,
        28,
        72,
        208,
        121,
        108,
        8,
        256,
        245,
        13,
        212,
        149,
        16,
        186,
        82,
        31,
        159,
        153,
        258,
        265,
        88,
        216,
        167,
        192,
        173,
        168,
        18,
        81,
        36,
        222,
        90,
        235,
        281,
        165,
        22,
        298,
        54,
        204,
        32,
        297,
        73,
        239,
        223,
        194,
        84,
        201,
        202,
        240,
        63,
        229,
        6,
        144,
        115,
        255,
        24,
        45,
        225,
        23,
        163,
        19,
        47,
        174,
        199,
        249,
        76,
        77,
        154
    ],
    "Nb of functions evaluations": 200010,
    "Computational time in seconds": 393.7905113697052,
    "Stopping criterion in evaluations": 200000
}